Running for instance ./models/rc107.txt
Optimize a model with 101 rows, 2000 columns and 9607 nonzeros
Variable types: 0 continuous, 2000 integer (0 binary)
Coefficient statistics:
  Matrix range     [1e+00, 1e+00]
  Objective range  [3e+01, 2e+02]
  Bounds range     [1e+00, 1e+00]
  RHS range        [1e+00, 2e+01]
Presolve removed 0 rows and 15 columns
Presolve time: 0.02s
Presolved: 101 rows, 1985 columns, 9541 nonzeros
Variable types: 0 continuous, 1985 integer (1985 binary)

Root relaxation: objective 2.279813e+03, 533 iterations, 0.02 seconds

    Nodes    |    Current Node    |     Objective Bounds      |     Work
 Expl Unexpl |  Obj  Depth IntInf | Incumbent    BestBd   Gap | It/Node Time

     0     0 2279.81297    0   98          - 2279.81297      -     -    0s
H    0     0                    2568.3857508 2279.81297  11.2%     -    0s
H    0     0                    2533.0460239 2279.81297  10.0%     -    0s
     0     0 2301.30228    0  104 2533.04602 2301.30228  9.15%     -    0s
     0     0 2305.88096    0  106 2533.04602 2305.88096  8.97%     -    0s
     0     0 2306.04015    0  108 2533.04602 2306.04015  8.96%     -    0s
     0     0 2306.05389    0  109 2533.04602 2306.05389  8.96%     -    0s
     0     0 2312.80463    0  112 2533.04602 2312.80463  8.69%     -    0s
     0     0 2313.10380    0  115 2533.04602 2313.10380  8.68%     -    0s
     0     0 2313.13012    0  118 2533.04602 2313.13012  8.68%     -    0s
     0     0 2315.72181    0  125 2533.04602 2315.72181  8.58%     -    0s
     0     0 2315.91183    0  128 2533.04602 2315.91183  8.57%     -    0s
     0     0 2316.07511    0  130 2533.04602 2316.07511  8.57%     -    0s
     0     0 2316.50570    0  128 2533.04602 2316.50570  8.55%     -    0s
     0     0 2316.72099    0  132 2533.04602 2316.72099  8.54%     -    0s
     0     0 2316.78887    0  132 2533.04602 2316.78887  8.54%     -    0s
     0     0 2316.79151    0  133 2533.04602 2316.79151  8.54%     -    0s
     0     0 2317.17946    0  133 2533.04602 2317.17946  8.52%     -    0s
     0     0 2317.23876    0  138 2533.04602 2317.23876  8.52%     -    0s
     0     0 2317.24389    0  138 2533.04602 2317.24389  8.52%     -    0s
     0     0 2317.31875    0  138 2533.04602 2317.31875  8.52%     -    0s
     0     0 2317.31875    0  138 2533.04602 2317.31875  8.52%     -    0s
     0     2 2317.31875    0  138 2533.04602 2317.31875  8.52%     -    0s
H  136   138                    2495.7683787 2331.28791  6.59%  58.6    1s
H  138   139                    2486.4990724 2331.28791  6.24%  58.6    1s
H  139   139                    2436.9598250 2331.28791  4.34%  58.7    1s
H 1062   681                    2426.6282067 2350.27202  3.15%  42.3    2s
  1077   691 2368.28044   10  139 2426.62821 2350.27202  3.15%  41.7    5s
H 4587  1238                    2426.6281977 2387.03748  1.63%  45.7    9s
  4888  1261 2417.43858   34  102 2426.62820 2389.00524  1.55%  45.4   10s
H 5110  1087                    2416.0491398 2390.77862  1.05%  45.2   10s

Cutting planes:
  MIR: 43
  Flow cover: 26
  Zero half: 14

Explored 7198 nodes (309006 simplex iterations) in 12.26 seconds
Thread count was 8 (of 8 available processors)

Solution count 8: 2416.05 2426.63 2426.63 ... 2568.39

Optimal solution found (tolerance 1.00e-04)
Best objective 2.416049139838e+03, best bound 2.416049139838e+03, gap 0.0000%
95 19 18
71 38 44 43 42
82
9 77 66 91
75 97
73 11 78 60
14 47 16 87 74
63 85
2 41 40 37 35 39
29 28
46 6 70 100
59 86 57
98 65 69 92 96
12 53
83 64 22 15 17
94 34 32
61 3 8
19 49 76
5 7 79 45 1
81 67 62 56
52 21 23 48 20 25
72 31 26 30 32
Distance: 2416.04913984
Execution time:  0.243712233333  minutes
